c generated tseitin-torus-3x3-odd
p cnf 18 72
1 3 10 16 0
-1 -3 10 16 0
-1 3 -10 16 0
1 -3 -10 16 0
-1 3 10 -16 0
1 -3 10 -16 0
1 3 -10 -16 0
-1 -3 -10 -16 0
-2 1 11 17 0
2 -1 11 17 0
2 1 -11 17 0
-2 -1 -11 17 0
2 1 11 -17 0
-2 -1 11 -17 0
-2 1 -11 -17 0
2 -1 -11 -17 0
-3 2 12 18 0
3 -2 12 18 0
3 2 -12 18 0
-3 -2 -12 18 0
3 2 12 -18 0
-3 -2 12 -18 0
-3 2 -12 -18 0
3 -2 -12 -18 0
-4 6 13 10 0
4 -6 13 10 0
4 6 -13 10 0
-4 -6 -13 10 0
4 6 13 -10 0
-4 -6 13 -10 0
-4 6 -13 -10 0
4 -6 -13 -10 0
-5 4 14 11 0
5 -4 14 11 0
5 4 -14 11 0
-5 -4 -14 11 0
5 4 14 -11 0
-5 -4 14 -11 0
-5 4 -14 -11 0
5 -4 -14 -11 0
-6 5 15 12 0
6 -5 15 12 0
6 5 -15 12 0
-6 -5 -15 12 0
6 5 15 -12 0
-6 -5 15 -12 0
-6 5 -15 -12 0
6 -5 -15 -12 0
-7 9 16 13 0
7 -9 16 13 0
7 9 -16 13 0
-7 -9 -16 13 0
7 9 16 -13 0
-7 -9 16 -13 0
-7 9 -16 -13 0
7 -9 -16 -13 0
-8 7 17 14 0
8 -7 17 14 0
8 7 -17 14 0
-8 -7 -17 14 0
8 7 17 -14 0
-8 -7 17 -14 0
-8 7 -17 -14 0
8 -7 -17 -14 0
-9 8 18 15 0
9 -8 18 15 0
9 8 -18 15 0
-9 -8 -18 15 0
9 8 18 -15 0
-9 -8 18 -15 0
-9 8 -18 -15 0
9 -8 -18 -15 0

