c generated tseitin-torus-5x6-odd
p cnf 60 240
1 6 31 55 0
-1 -6 31 55 0
-1 6 -31 55 0
1 -6 -31 55 0
-1 6 31 -55 0
1 -6 31 -55 0
1 6 -31 -55 0
-1 -6 -31 -55 0
-2 1 32 56 0
2 -1 32 56 0
2 1 -32 56 0
-2 -1 -32 56 0
2 1 32 -56 0
-2 -1 32 -56 0
-2 1 -32 -56 0
2 -1 -32 -56 0
-3 2 33 57 0
3 -2 33 57 0
3 2 -33 57 0
-3 -2 -33 57 0
3 2 33 -57 0
-3 -2 33 -57 0
-3 2 -33 -57 0
3 -2 -33 -57 0
-4 3 34 58 0
4 -3 34 58 0
4 3 -34 58 0
-4 -3 -34 58 0
4 3 34 -58 0
-4 -3 34 -58 0
-4 3 -34 -58 0
4 -3 -34 -58 0
-5 4 35 59 0
5 -4 35 59 0
5 4 -35 59 0
-5 -4 -35 59 0
5 4 35 -59 0
-5 -4 35 -59 0
-5 4 -35 -59 0
5 -4 -35 -59 0
-6 5 36 60 0
6 -5 36 60 0
6 5 -36 60 0
-6 -5 -36 60 0
6 5 36 -60 0
-6 -5 36 -60 0
-6 5 -36 -60 0
6 -5 -36 -60 0
-7 12 37 31 0
7 -12 37 31 0
7 12 -37 31 0
-7 -12 -37 31 0
7 12 37 -31 0
-7 -12 37 -31 0
-7 12 -37 -31 0
7 -12 -37 -31 0
-8 7 38 32 0
8 -7 38 32 0
8 7 -38 32 0
-8 -7 -38 32 0
8 7 38 -32 0
-8 -7 38 -32 0
-8 7 -38 -32 0
8 -7 -38 -32 0
-9 8 39 33 0
9 -8 39 33 0
9 8 -39 33 0
-9 -8 -39 33 0
9 8 39 -33 0
-9 -8 39 -33 0
-9 8 -39 -33 0
9 -8 -39 -33 0
-10 9 40 34 0
10 -9 40 34 0
10 9 -40 34 0
-10 -9 -40 34 0
10 9 40 -34 0
-10 -9 40 -34 0
-10 9 -40 -34 0
10 -9 -40 -34 0
-11 10 41 35 0
11 -10 41 35 0
11 10 -41 35 0
-11 -10 -41 35 0
11 10 41 -35 0
-11 -10 41 -35 0
-11 10 -41 -35 0
11 -10 -41 -35 0
-12 11 42 36 0
12 -11 42 36 0
12 11 -42 36 0
-12 -11 -42 36 0
12 11 42 -36 0
-12 -11 42 -36 0
-12 11 -42 -36 0
12 -11 -42 -36 0
-13 18 43 37 0
13 -18 43 37 0
13 18 -43 37 0
-13 -18 -43 37 0
13 18 43 -37 0
-13 -18 43 -37 0
-13 18 -43 -37 0
13 -18 -43 -37 0
-14 13 44 38 0
14 -13 44 38 0
14 13 -44 38 0
-14 -13 -44 38 0
14 13 44 -38 0
-14 -13 44 -38 0
-14 13 -44 -38 0
14 -13 -44 -38 0
-15 14 45 39 0
15 -14 45 39 0
15 14 -45 39 0
-15 -14 -45 39 0
15 14 45 -39 0
-15 -14 45 -39 0
-15 14 -45 -39 0
15 -14 -45 -39 0
-16 15 46 40 0
16 -15 46 40 0
16 15 -46 40 0
-16 -15 -46 40 0
16 15 46 -40 0
-16 -15 46 -40 0
-16 15 -46 -40 0
16 -15 -46 -40 0
-17 16 47 41 0
17 -16 47 41 0
17 16 -47 41 0
-17 -16 -47 41 0
17 16 47 -41 0
-17 -16 47 -41 0
-17 16 -47 -41 0
17 -16 -47 -41 0
-18 17 48 42 0
18 -17 48 42 0
18 17 -48 42 0
-18 -17 -48 42 0
18 17 48 -42 0
-18 -17 48 -42 0
-18 17 -48 -42 0
18 -17 -48 -42 0
-19 24 49 43 0
19 -24 49 43 0
19 24 -49 43 0
-19 -24 -49 43 0
19 24 49 -43 0
-19 -24 49 -43 0
-19 24 -49 -43 0
19 -24 -49 -43 0
-20 19 50 44 0
20 -19 50 44 0
20 19 -50 44 0
-20 -19 -50 44 0
20 19 50 -44 0
-20 -19 50 -44 0
-20 19 -50 -44 0
20 -19 -50 -44 0
-21 20 51 45 0
21 -20 51 45 0
21 20 -51 45 0
-21 -20 -51 45 0
21 20 51 -45 0
-21 -20 51 -45 0
-21 20 -51 -45 0
21 -20 -51 -45 0
-22 21 52 46 0
22 -21 52 46 0
22 21 -52 46 0
-22 -21 -52 46 0
22 21 52 -46 0
-22 -21 52 -46 0
-22 21 -52 -46 0
22 -21 -52 -46 0
-23 22 53 47 0
23 -22 53 47 0
23 22 -53 47 0
-23 -22 -53 47 0
23 22 53 -47 0
-23 -22 53 -47 0
-23 22 -53 -47 0
23 -22 -53 -47 0
-24 23 54 48 0
24 -23 54 48 0
24 23 -54 48 0
-24 -23 -54 48 0
24 23 54 -48 0
-24 -23 54 -48 0
-24 23 -54 -48 0
24 -23 -54 -48 0
-25 30 55 49 0
25 -30 55 49 0
25 30 -55 49 0
-25 -30 -55 49 0
25 30 55 -49 0
-25 -30 55 -49 0
-25 30 -55 -49 0
25 -30 -55 -49 0
-26 25 56 50 0
26 -25 56 50 0
26 25 -56 50 0
-26 -25 -56 50 0
26 25 56 -50 0
-26 -25 56 -50 0
-26 25 -56 -50 0
26 -25 -56 -50 0
-27 26 57 51 0
27 -26 57 51 0
27 26 -57 51 0
-27 -26 -57 51 0
27 26 57 -51 0
-27 -26 57 -51 0
-27 26 -57 -51 0
27 -26 -57 -51 0
-28 27 58 52 0
28 -27 58 52 0
28 27 -58 52 0
-28 -27 -58 52 0
28 27 58 -52 0
-28 -27 58 -52 0
-28 27 -58 -52 0
28 -27 -58 -52 0
-29 28 59 53 0
29 -28 59 53 0
29 28 -59 53 0
-29 -28 -59 53 0
29 28 59 -53 0
-29 -28 59 -53 0
-29 28 -59 -53 0
29 -28 -59 -53 0
-30 29 60 54 0
30 -29 60 54 0
30 29 -60 54 0
-30 -29 -60 54 0
30 29 60 -54 0
-30 -29 60 -54 0
-30 29 -60 -54 0
30 -29 -60 -54 0

