c generated tseitin-torus-4x4-odd
p cnf 32 128
1 4 17 29 0
-1 -4 17 29 0
-1 4 -17 29 0
1 -4 -17 29 0
-1 4 17 -29 0
1 -4 17 -29 0
1 4 -17 -29 0
-1 -4 -17 -29 0
-2 1 18 30 0
2 -1 18 30 0
2 1 -18 30 0
-2 -1 -18 30 0
2 1 18 -30 0
-2 -1 18 -30 0
-2 1 -18 -30 0
2 -1 -18 -30 0
-3 2 19 31 0
3 -2 19 31 0
3 2 -19 31 0
-3 -2 -19 31 0
3 2 19 -31 0
-3 -2 19 -31 0
-3 2 -19 -31 0
3 -2 -19 -31 0
-4 3 20 32 0
4 -3 20 32 0
4 3 -20 32 0
-4 -3 -20 32 0
4 3 20 -32 0
-4 -3 20 -32 0
-4 3 -20 -32 0
4 -3 -20 -32 0
-5 8 21 17 0
5 -8 21 17 0
5 8 -21 17 0
-5 -8 -21 17 0
5 8 21 -17 0
-5 -8 21 -17 0
-5 8 -21 -17 0
5 -8 -21 -17 0
-6 5 22 18 0
6 -5 22 18 0
6 5 -22 18 0
-6 -5 -22 18 0
6 5 22 -18 0
-6 -5 22 -18 0
-6 5 -22 -18 0
6 -5 -22 -18 0
-7 6 23 19 0
7 -6 23 19 0
7 6 -23 19 0
-7 -6 -23 19 0
7 6 23 -19 0
-7 -6 23 -19 0
-7 6 -23 -19 0
7 -6 -23 -19 0
-8 7 24 20 0
8 -7 24 20 0
8 7 -24 20 0
-8 -7 -24 20 0
8 7 24 -20 0
-8 -7 24 -20 0
-8 7 -24 -20 0
8 -7 -24 -20 0
-9 12 25 21 0
9 -12 25 21 0
9 12 -25 21 0
-9 -12 -25 21 0
9 12 25 -21 0
-9 -12 25 -21 0
-9 12 -25 -21 0
9 -12 -25 -21 0
-10 9 26 22 0
10 -9 26 22 0
10 9 -26 22 0
-10 -9 -26 22 0
10 9 26 -22 0
-10 -9 26 -22 0
-10 9 -26 -22 0
10 -9 -26 -22 0
-11 10 27 23 0
11 -10 27 23 0
11 10 -27 23 0
-11 -10 -27 23 0
11 10 27 -23 0
-11 -10 27 -23 0
-11 10 -27 -23 0
11 -10 -27 -23 0
-12 11 28 24 0
12 -11 28 24 0
12 11 -28 24 0
-12 -11 -28 24 0
12 11 28 -24 0
-12 -11 28 -24 0
-12 11 -28 -24 0
12 -11 -28 -24 0
-13 16 29 25 0
13 -16 29 25 0
13 16 -29 25 0
-13 -16 -29 25 0
13 16 29 -25 0
-13 -16 29 -25 0
-13 16 -29 -25 0
13 -16 -29 -25 0
-14 13 30 26 0
14 -13 30 26 0
14 13 -30 26 0
-14 -13 -30 26 0
14 13 30 -26 0
-14 -13 30 -26 0
-14 13 -30 -26 0
14 -13 -30 -26 0
-15 14 31 27 0
15 -14 31 27 0
15 14 -31 27 0
-15 -14 -31 27 0
15 14 31 -27 0
-15 -14 31 -27 0
-15 14 -31 -27 0
15 -14 -31 -27 0
-16 15 32 28 0
16 -15 32 28 0
16 15 -32 28 0
-16 -15 -32 28 0
16 15 32 -28 0
-16 -15 32 -28 0
-16 15 -32 -28 0
16 -15 -32 -28 0

